InboundTrucks  = 12;
OutboundTrucks = 8;
InboundDoors   = 4;
OutboundDoors  = 4;
ReleaseTime    = [97,49,82,60,52,111,25,25,86,50,7,54];
UnloadTime     = [38,38,12,43,30,22,25,41,43,22,35,30];
LoadTime       = [20,9,18,19,28,27,27,26];
TransferTime   = [| 25,0,0,0,0,0,0,50 | 0,26,23,0,18,0,0,0 | 0,32,28,0,0,0,0,0 | 0,0,0,0,0,0,32,0 | 22,0,42,0,0,20,0,0 | 0,0,0,0,25,0,0,0 | 0,0,38,0,0,16,20,0 | 0,0,0,34,22,0,0,36 | 0,44,0,0,24,0,0,0 | 24,0,0,45,12,0,0,0 | 0,0,0,0,41,0,0,0 | 0,22,45,0,0,0,0,0 |];
